p cnf 25 42
e 1 2 3 4 5 6 7 8 9 10 11 12 0
a 16 17 0
e 13 14 15 18 19 20 21 22 23 24 25 0
9 0
13 9 0
-13 10 0
15 11 0
-15 12 0
13 14 1 0
13 -14 2 0
-13 14 3 0
-13 -14 4 0
14 15 5 0
14 -15 6 0
-14 15 7 0
-14 -15 8 0
-16 -18 0
-9 -18 0
16 9 18 0
16 -19 0
-10 -19 0
-16 10 19 0
-17 -20 0
-11 -20 0
17 11 20 0
17 -21 0
-12 -21 0
-17 12 21 0
-16 -22 0
-17 -22 0
-5 -22 0
16 17 5 22 0
-16 -23 0
17 -23 0
-6 -23 0
16 -17 6 23 0
16 -24 0
-17 -24 0
-7 -24 0
-16 17 7 24 0
16 -25 0
17 -25 0
-8 -25 0
-16 -17 8 25 0
18 19 20 21 22 23 24 25 0
